c FILE /home/rafael/Documents/HappySet/MIHS/inputs/happygen/output/graph_scale_free_k2_p0.2_v100_20241127_083753.txt
c SOURCE This is a scale-free graph formed for the happy graph colouring problem.
c DESCRIPTION It was generated using the problem generator of Rhyd Lewis
c
c GRAPH STATS
c Seed                             = 1686243798
c Number of Nodes                  = 100
c Number of colours k              = 2
c Number of pre-assignments        = 20
c Number of links per new node     = 5
c Density                          = 0.0979798
c 
c The degrees of nodes 1 to 100, respectively, are as follows 
c [40, 34, 32, 31, 28, 25, 23, 19, 19, 18, 17, 17, 17, 16, 15, 15, 15, 14, 13, 12, 12, 11, 11, 11, 11, 11, 
c  11, 10, 10, 10, 10, 10, 9, 9, 9, 9, 9, 9, 9, 8, 8, 8, 8, 8, 8, 8, 8, 7, 7, 7, 7, 
c  7, 7, 7, 6, 6, 6, 6, 6, 6, 6, 6, 6, 6, 6, 6, 6, 6, 6, 6, 5, 5, 5, 5, 5, 5, 
c  5, 5, 5, 5, 5, 5, 5, 5, 5, 5, 5, 5, 5, 5, 5, 5, 5, 5, 5, 5, 5, 5, 5, 5] 
c  
p edge 100 485 2
e 1 2
e 1 3
e 1 4
e 1 6
e 1 7
e 1 8
e 1 10
e 1 11
e 1 12
e 1 13
e 1 14
e 1 15
e 1 17
e 1 18
e 1 21
e 1 22
e 1 23
e 1 25
e 1 26
e 1 28
e 1 29
e 1 33
e 1 34
e 1 38
e 1 40
e 1 44
e 1 45
e 1 50
e 1 54
e 1 55
e 1 60
e 1 62
e 1 64
e 1 74
e 1 76
e 1 78
e 1 80
e 1 89
e 1 94
e 1 99
e 2 3
e 2 4
e 2 5
e 2 6
e 2 7
e 2 11
e 2 14
e 2 16
e 2 20
e 2 22
e 2 23
e 2 25
e 2 26
e 2 28
e 2 29
e 2 30
e 2 33
e 2 38
e 2 43
e 2 50
e 2 51
e 2 52
e 2 57
e 2 58
e 2 60
e 2 65
e 2 70
e 2 73
e 2 76
e 2 77
e 2 88
e 2 92
e 2 94
e 3 4
e 3 5
e 3 6
e 3 7
e 3 8
e 3 9
e 3 10
e 3 11
e 3 14
e 3 17
e 3 18
e 3 19
e 3 22
e 3 24
e 3 27
e 3 33
e 3 36
e 3 44
e 3 53
e 3 55
e 3 56
e 3 59
e 3 63
e 3 71
e 3 72
e 3 74
e 3 75
e 3 84
e 3 94
e 3 98
e 4 5
e 4 7
e 4 8
e 4 9
e 4 11
e 4 14
e 4 15
e 4 16
e 4 17
e 4 18
e 4 19
e 4 21
e 4 23
e 4 28
e 4 33
e 4 39
e 4 41
e 4 55
e 4 57
e 4 59
e 4 64
e 4 65
e 4 71
e 4 73
e 4 74
e 4 77
e 4 78
e 4 82
e 5 7
e 5 8
e 5 10
e 5 11
e 5 12
e 5 13
e 5 15
e 5 23
e 5 24
e 5 35
e 5 42
e 5 43
e 5 46
e 5 48
e 5 49
e 5 54
e 5 55
e 5 61
e 5 69
e 5 80
e 5 81
e 5 83
e 5 87
e 5 91
e 5 96
e 6 7
e 6 8
e 6 10
e 6 15
e 6 16
e 6 22
e 6 34
e 6 36
e 6 45
e 6 49
e 6 50
e 6 57
e 6 58
e 6 61
e 6 71
e 6 73
e 6 76
e 6 82
e 6 84
e 6 86
e 6 92
e 6 97
e 7 10
e 7 15
e 7 16
e 7 21
e 7 25
e 7 28
e 7 29
e 7 35
e 7 43
e 7 56
e 7 58
e 7 68
e 7 70
e 7 82
e 7 84
e 7 98
e 7 99
e 8 11
e 8 14
e 8 18
e 8 19
e 8 20
e 8 29
e 8 43
e 8 54
e 8 64
e 8 80
e 8 89
e 8 90
e 8 91
e 8 93
e 9 12
e 9 15
e 9 18
e 9 20
e 9 39
e 9 46
e 9 47
e 9 51
e 9 53
e 9 62
e 9 66
e 9 70
e 9 71
e 9 72
e 9 88
e 9 92
e 9 94
e 10 13
e 10 21
e 10 22
e 10 27
e 10 30
e 10 31
e 10 36
e 10 37
e 10 39
e 10 48
e 10 49
e 10 52
e 10 56
e 11 12
e 11 14
e 11 16
e 11 21
e 11 28
e 11 60
e 11 68
e 11 76
e 11 78
e 11 93
e 11 97
e 12 14
e 12 15
e 12 20
e 12 24
e 12 31
e 12 44
e 12 46
e 12 47
e 12 53
e 12 57
e 12 61
e 12 64
e 12 65
e 13 16
e 13 23
e 13 27
e 13 28
e 13 32
e 13 34
e 13 37
e 13 72
e 13 75
e 13 83
e 13 85
e 13 86
e 13 88
e 13 98
e 14 19
e 14 26
e 14 32
e 14 33
e 14 46
e 14 49
e 14 65
e 14 93
e 14 95
e 15 17
e 15 20
e 15 24
e 15 35
e 15 41
e 15 59
e 15 80
e 15 91
e 16 18
e 16 29
e 16 51
e 16 53
e 16 59
e 16 62
e 16 76
e 16 91
e 16 95
e 17 24
e 17 25
e 17 27
e 17 28
e 17 36
e 17 38
e 17 40
e 17 45
e 17 52
e 17 92
e 17 97
e 18 30
e 18 34
e 18 40
e 18 46
e 18 48
e 18 50
e 18 56
e 18 67
e 19 26
e 19 37
e 19 42
e 19 51
e 19 58
e 19 73
e 19 74
e 19 84
e 19 99
e 20 32
e 20 40
e 20 47
e 20 52
e 20 55
e 20 97
e 20 98
e 21 25
e 21 27
e 21 47
e 21 52
e 21 66
e 21 96
e 21 100
e 22 30
e 22 37
e 22 41
e 22 69
e 22 85
e 22 90
e 23 31
e 23 35
e 23 43
e 23 72
e 23 78
e 23 99
e 24 35
e 24 36
e 24 42
e 24 44
e 24 47
e 24 75
e 25 30
e 25 32
e 25 42
e 25 66
e 25 67
e 25 68
e 26 30
e 26 33
e 26 44
e 26 50
e 26 63
e 26 79
e 26 90
e 27 31
e 27 37
e 27 61
e 27 63
e 27 84
e 27 90
e 28 34
e 28 54
e 28 72
e 29 39
e 29 45
e 29 48
e 29 60
e 29 70
e 30 39
e 30 56
e 30 85
e 30 86
e 31 49
e 31 62
e 31 73
e 31 87
e 31 91
e 31 96
e 32 37
e 32 66
e 32 69
e 32 81
e 32 83
e 32 87
e 33 41
e 33 69
e 33 71
e 34 48
e 34 77
e 34 82
e 34 95
e 35 40
e 35 49
e 35 61
e 35 93
e 36 42
e 36 59
e 36 75
e 36 81
e 37 67
e 37 68
e 37 100
e 38 48
e 38 58
e 38 68
e 38 88
e 38 97
e 38 100
e 39 67
e 39 80
e 39 92
e 39 94
e 40 58
e 40 63
e 40 83
e 41 45
e 41 48
e 41 57
e 41 60
e 42 65
e 42 82
e 42 100
e 43 51
e 43 66
e 43 79
e 44 63
e 44 87
e 44 100
e 45 53
e 45 67
e 45 99
e 46 75
e 46 85
e 46 88
e 47 77
e 47 78
e 47 90
e 49 77
e 50 70
e 50 96
e 51 74
e 51 87
e 52 79
e 52 86
e 53 64
e 53 95
e 54 62
e 54 81
e 54 83
e 55 79
e 56 89
e 57 81
e 59 79
e 60 62
e 61 89
e 63 96
e 64 86
e 65 85
e 66 69
e 67 89
e 68 95
e 69 93
e 70 98
n 8 1
n 10 2
n 12 2
n 28 1
n 31 2
n 32 1
n 34 1
n 40 2
n 43 1
n 51 1
n 52 2
n 56 2
n 63 2
n 66 1
n 80 1
n 82 1
n 88 2
n 94 2
n 95 1
n 97 1
